100
125 125
1 99 739
2 99 778
3 98 333
4 97 714
5 96 32
6 96 631
7 95 806
8 95 15
9 95 760
10 95 786
11 92 492
12 91 283
13 90 529
14 90 510
15 89 298
16 88 0
17 87 196
18 85 350
19 84 404
20 83 491
21 81 571
22 81 338
23 80 247
24 80 976
25 78 775
26 78 339
27 77 508
28 77 751
29 76 62
30 75 721
31 75 392
32 75 928
33 74 235
34 73 716
35 73 109
36 72 78
37 71 746
38 71 429
39 68 98
40 67 255
41 67 219
42 67 633
43 66 620
44 66 523
45 65 413
46 65 414
47 64 213
48 64 866
49 64 273
50 63 551
51 63 199
52 61 898
53 60 820
54 60 777
55 60 488
56 59 873
57 59 176
58 59 953
59 56 341
60 55 406
61 55 691
62 55 193
63 54 845
64 53 49
65 53 110
66 53 165
67 52 102
68 50 689
69 50 496
70 49 549
71 48 869
72 46 404
73 46 677
74 46 794
75 46 821
76 45 107
77 45 399
78 44 390
79 44 490
80 43 120
81 43 846
82 42 969
83 42 867
84 41 931
85 41 594
86 41 688
87 41 336
88 40 181
89 38 820
90 38 874
91 37 955
92 37 415
93 37 994
94 37 427
95 36 43
96 36 833
97 33 173
98 33 462
99 27 296
100 26 17
